50
49 490 99 49 55 55 343 55 98 343 343 49 392 66 33 49 147 441 392 110 11 66 22 88 294 77 22 11 77 98 343 490 343 490 55 110 343 77 245 88 147 196 77 441 77 98 147 196 11 441 
42 420 432 42 240 240 294 240 84 294 294 42 336 288 144 42 126 378 336 480 48 288 96 384 252 336 96 48 336 84 294 420 294 420 240 480 294 336 210 384 126 168 336 378 336 84 126 168 48 378 
4375
